data;

set J := 1 2 3 4 5 6 7 8 9 10 11 12 13 14 15 16 17 18 19 20 21 22 23 24 25 26 27 28 29 30 31 32 33 34 35 36 37 38 39 40 41 42 43 44 45 46 47 48 49 50 51 52 53 54 55 56 57 58 59 60 61 62 63 64 65 66 67 68 69 70 71 72 73 74 75 76 77 78 79 80 81 82 83 84 85 86 87 88 89 90 91 92 93 94 95 96 97 98 99 100 101 102 103 104 105 106 107 108 109 110 111 112 113 114 115 116 117 118 119 120 121 122 123 124 125 126 127 128 129 130 131 132 133 134 135 136 137 138 139 140 141 142 143 144 145 146 147 148 149 150 151 152 153 154 155 156 157 158 159 160 161 162 163 164 165 166 167 168 169 170 171 172 173 174 175 176 177 178 179 180 181 182 183 184 185 186 187 188 189 190 191 192 193 194 195 196 197 198 199 200 201 202 203 204 205 206 207 208 209 210 211 212 213 214 215 216 217 218 219 220 221 222 223 224 225 226 227 228 229 230 231 232 233 234 235 236 237 238 239 240 241 242 243 244 245 246 247 248 249 250 251 252 253 254 255 256 257 258 259 260 261 262 263 264 265 266 267 268 269 270 271 272 273 274 275 276 277 278 279 280 281 282 283 284 285 286 287 288 289 290 291 292 293 294 295 296 297 298 299 300;
set I := 1 2 3 4 5 6 7 8 9 10 11 12 13 14 15 16 17 18 19 20 21 22 23 24 25 26 27 28 29 30 31 32 33 34 35 36 37 38 39 40 41 42 43 44 45 46 47 48 49 50 51 52 53 54 55 56 57 58 59 60 61 62 63 64 65 66 67 68 69 70 71 72 73 74 75 76 77 78 79 80 81 82 83 84 85 86 87 88 89 90 91 92 93 94 95 96 97 98 99 100 101 102 103 104 105 106 107 108 109 110 111 112 113 114 115 116 117 118 119 120 121 122 123 124 125 126 127 128 129 130 131 132 133 134 135 136 137 138 139 140 141 142 143 144 145 146 147 148 149 150 151 152 153 154 155 156 157 158 159 160 161 162 163 164 165 166 167 168 169 170 171 172 173 174 175 176 177 178 179 180 181 182 183 184 185 186 187 188 189 190 191 192 193 194 195 196 197 198 199 200 201 202 203 204 205 206 207 208 209 210 211 212 213 214 215 216 217 218 219 220 221 222 223 224 225 226 227 228 229 230 231 232 233;

param p := 
    1 3
    2 1
    3 159
    4 56
    5 153
    6 178
    7 34
    8 19
    9 162
    10 30
    11 73
    12 34
    13 97
    14 160
    15 172
    16 123
    17 108
    18 118
    19 24
    20 123
    21 60
    22 174
    23 106
    24 35
    25 154
    26 79
    27 55
    28 60
    29 157
    30 56
    31 160
    32 95
    33 164
    34 122
    35 60
    36 81
    37 162
    38 111
    39 42
    40 136
    41 155
    42 124
    43 17
    44 52
    45 122
    46 35
    47 111
    48 146
    49 99
    50 137
    51 169
    52 86
    53 99
    54 72
    55 86
    56 15
    57 12
    58 103
    59 77
    60 4
    61 85
    62 73
    63 146
    64 31
    65 85
    66 21
    67 2
    68 31
    69 78
    70 38
    71 118
    72 2
    73 12
    74 66
    75 12
    76 14
    77 174
    78 70
    79 51
    80 44
    81 179
    82 107
    83 28
    84 173
    85 138
    86 162
    87 135
    88 47
    89 106
    90 95
    91 36
    92 46
    93 55
    94 114
    95 108
    96 23
    97 110
    98 35
    99 47
    100 100
    101 56
    102 106
    103 115
    104 160
    105 154
    106 83
    107 19
    108 20
    109 104
    110 90
    111 36
    112 138
    113 123
    114 132
    115 46
    116 64
    117 59
    118 3
    119 45
    120 121
    121 145
    122 35
    123 57
    124 126
    125 116
    126 171
    127 3
    128 52
    129 50
    130 162
    131 32
    132 170
    133 21
    134 126
    135 47
    136 138
    137 84
    138 70
    139 97
    140 88
    141 176
    142 89
    143 86
    144 149
    145 137
    146 32
    147 156
    148 171
    149 75
    150 144
    151 39
    152 4
    153 67
    154 71
    155 124
    156 66
    157 114
    158 75
    159 121
    160 62
    161 42
    162 85
    163 1
    164 179
    165 16
    166 74
    167 129
    168 11
    169 128
    170 113
    171 145
    172 25
    173 55
    174 143
    175 141
    176 62
    177 7
    178 66
    179 105
    180 21
    181 133
    182 152
    183 113
    184 159
    185 147
    186 64
    187 23
    188 40
    189 22
    190 119
    191 133
    192 65
    193 79
    194 118
    195 1
    196 53
    197 45
    198 119
    199 11
    200 12
    201 57
    202 100
    203 16
    204 137
    205 177
    206 139
    207 30
    208 169
    209 167
    210 160
    211 88
    212 98
    213 82
    214 49
    215 136
    216 103
    217 161
    218 46
    219 8
    220 54
    221 115
    222 112
    223 139
    224 114
    225 3
    226 33
    227 152
    228 94
    229 160
    230 132
    231 4
    232 10
    233 25
    234 100
    235 82
    236 57
    237 179
    238 129
    239 87
    240 18
    241 179
    242 51
    243 61
    244 129
    245 163
    246 142
    247 35
    248 52
    249 166
    250 161
    251 170
    252 57
    253 10
    254 92
    255 49
    256 90
    257 5
    258 116
    259 153
    260 37
    261 114
    262 83
    263 7
    264 83
    265 176
    266 135
    267 171
    268 45
    269 158
    270 6
    271 68
    272 42
    273 161
    274 91
    275 77
    276 7
    277 33
    278 163
    279 177
    280 136
    281 56
    282 168
    283 27
    284 162
    285 103
    286 92
    287 28
    288 47
    289 25
    290 53
    291 29
    292 102
    293 51
    294 33
    295 116
    296 48
    297 155
    298 86
    299 1
    300 76;

param r := 
    1 107
    2 111
    3 145
    4 51
    5 122
    6 123
    7 42
    8 125
    9 31
    10 45
    11 38
    12 74
    13 129
    14 72
    15 94
    16 25
    17 19
    18 59
    19 82
    20 86
    21 80
    22 125
    23 139
    24 24
    25 78
    26 116
    27 151
    28 112
    29 135
    30 75
    31 22
    32 69
    33 52
    34 150
    35 30
    36 62
    37 40
    38 131
    39 4
    40 71
    41 78
    42 129
    43 68
    44 46
    45 73
    46 97
    47 80
    48 17
    49 107
    50 73
    51 23
    52 65
    53 41
    54 122
    55 93
    56 41
    57 101
    58 14
    59 86
    60 154
    61 26
    62 78
    63 143
    64 31
    65 128
    66 36
    67 38
    68 129
    69 48
    70 11
    71 23
    72 112
    73 40
    74 162
    75 11
    76 140
    77 38
    78 24
    79 100
    80 149
    81 46
    82 9
    83 86
    84 116
    85 111
    86 122
    87 25
    88 90
    89 23
    90 48
    91 52
    92 94
    93 102
    94 46
    95 139
    96 10
    97 32
    98 103
    99 85
    100 79
    101 8
    102 59
    103 63
    104 36
    105 20
    106 98
    107 65
    108 159
    109 77
    110 10
    111 146
    112 82
    113 123
    114 51
    115 66
    116 143
    117 14
    118 108
    119 24
    120 48
    121 92
    122 67
    123 79
    124 114
    125 96
    126 37
    127 104
    128 106
    129 1
    130 129
    131 103
    132 161
    133 2
    134 63
    135 75
    136 96
    137 101
    138 152
    139 7
    140 163
    141 53
    142 146
    143 74
    144 101
    145 23
    146 6
    147 158
    148 109
    149 58
    150 8
    151 120
    152 84
    153 120
    154 150
    155 84
    156 65
    157 63
    158 36
    159 103
    160 52
    161 80
    162 130
    163 27
    164 34
    165 19
    166 124
    167 82
    168 7
    169 16
    170 153
    171 165
    172 52
    173 165
    174 54
    175 117
    176 22
    177 156
    178 68
    179 94
    180 43
    181 28
    182 31
    183 109
    184 157
    185 12
    186 26
    187 18
    188 54
    189 78
    190 101
    191 73
    192 46
    193 90
    194 19
    195 39
    196 111
    197 165
    198 82
    199 25
    200 71
    201 37
    202 77
    203 20
    204 100
    205 154
    206 103
    207 146
    208 76
    209 121
    210 37
    211 47
    212 3
    213 83
    214 107
    215 118
    216 21
    217 4
    218 85
    219 70
    220 57
    221 123
    222 86
    223 72
    224 23
    225 8
    226 16
    227 43
    228 9
    229 121
    230 57
    231 35
    232 65
    233 83
    234 89
    235 73
    236 32
    237 124
    238 131
    239 62
    240 139
    241 40
    242 45
    243 54
    244 49
    245 42
    246 26
    247 16
    248 29
    249 156
    250 100
    251 149
    252 4
    253 10
    254 8
    255 10
    256 156
    257 156
    258 30
    259 83
    260 16
    261 96
    262 45
    263 89
    264 142
    265 154
    266 91
    267 62
    268 9
    269 46
    270 132
    271 10
    272 80
    273 15
    274 41
    275 99
    276 156
    277 43
    278 111
    279 143
    280 128
    281 102
    282 6
    283 70
    284 34
    285 118
    286 158
    287 14
    288 14
    289 71
    290 92
    291 44
    292 41
    293 162
    294 84
    295 74
    296 79
    297 76
    298 115
    299 85
    300 134;

param T := 179;
param R := 165;
param M := 1000000;

end;